nbV = 14;
nbE = 13;
map = [|false,false,false,false,false,false,false,false,false,false,false,true,false
|false,false,false,true,false,false,false,false,false,false,false,false,false
|false,true,false,false,false,false,false,false,false,false,false,false,false
|false,false,false,false,false,false,false,false,false,true,false,false,false
|false,false,false,false,true,true,false,false,false,false,false,false,false
|false,false,false,false,false,false,false,false,false,false,false,false,true
|false,false,false,false,false,false,false,false,false,false,true,false,true
|false,false,false,false,false,false,true,true,false,false,false,false,false
|true,false,false,false,false,false,false,false,false,false,false,false,false
|false,false,true,false,false,false,false,true,false,false,false,false,false
|true,false,true,false,false,true,false,false,false,false,false,false,false
|false,false,false,true,true,false,false,false,false,false,false,true,false
|false,true,false,false,false,false,true,false,true,false,false,false,false
|false,false,false,false,false,false,false,false,true,true,true,false,false
|];
endnodes = [|false,false,false,false,false,false,false,false,true,false,true,false,false,false
|false,false,true,false,false,false,false,false,false,false,false,false,true,false
|false,false,false,false,false,false,false,false,false,true,true,false,false,false
|false,true,false,false,false,false,false,false,false,false,false,true,false,false
|false,false,false,false,true,false,false,false,false,false,false,true,false,false
|false,false,false,false,true,false,false,false,false,false,true,false,false,false
|false,false,false,false,false,false,false,true,false,false,false,false,true,false
|false,false,false,false,false,false,false,true,false,true,false,false,false,false
|false,false,false,false,false,false,false,false,false,false,false,false,true,true
|false,false,false,true,false,false,false,false,false,false,false,false,false,true
|false,false,false,false,false,false,true,false,false,false,false,false,false,true
|true,false,false,false,false,false,false,false,false,false,false,true,false,false
|false,false,false,false,false,true,true,false,false,false,false,false,false,false
|];
terminals = {1,4,10};
link_cost = [1,1,1,1,1,1,1,1,1,1,1,1,1];
